c Sudoku solution
p cnf 729 0
127 0
173 0
255 0
263 0
348 0
386 0
413 0
441 0
518 0
536 0
554 0
567 0
632 0
659 0
697 0
437 0
733 0
323 0
745 0
794 0
858 0
953 0
864 0
882 0
893 0
912 0
222 0
925 0
934 0
728 0
875 0
615 0
465 0
668 0
826 0
971 0
572 0
452 0
543 0
646 0
683 0
621 0
529 0
424 0
674 0
142 0
244 0
357 0
216 0
762 0
751 0
966 0
776 0
156 0
392 0
335 0
379 0
184 0
195 0
314 0
138 0
239 0
111 0
169 0
361 0
831 0
496 0
277 0
478 0
489 0
585 0
591 0
281 0
298 0
988 0
787 0
999 0
719 0
817 0
849 0
947 0
